p edge 3016 2966
e 1 2
e 1 3
e 1 4
e 1 5
e 1 6
e 1 7
e 1 8
e 1 9
e 1 10
e 1 11
e 1 12
e 1 13
e 1 14
e 1 15
e 1 16
e 1 17
e 1 18
e 1 19
e 1 20
e 1 21
e 1 22
e 1 23
e 1 24
e 1 25
e 1 26
e 1 27
e 1 28
e 1 29
e 1 30
e 1 31
e 1 32
e 1 33
e 1 34
e 1 35
e 1 36
e 1 37
e 1 38
e 1 39
e 1 40
e 1 41
e 1 42
e 1 43
e 1 44
e 1 45
e 1 46
e 1 47
e 1 48
e 1 49
e 1 50
e 1 51
e 1 52
e 1 53
e 1 54
e 1 55
e 56 57
e 56 58
e 56 59
e 56 60
e 56 61
e 56 62
e 56 63
e 56 64
e 56 65
e 56 66
e 56 67
e 56 68
e 56 69
e 56 70
e 56 71
e 56 72
e 56 73
e 56 74
e 56 75
e 56 76
e 56 77
e 56 78
e 56 79
e 56 80
e 56 81
e 56 82
e 56 83
e 56 84
e 56 85
e 56 86
e 56 87
e 56 88
e 56 89
e 56 90
e 56 91
e 56 92
e 56 93
e 56 94
e 56 95
e 56 96
e 56 97
e 56 98
e 56 99
e 56 100
e 56 101
e 56 102
e 56 103
e 56 104
e 56 105
e 56 106
e 56 107
e 56 108
e 56 109
e 56 110
e 56 111
e 56 112
e 56 113
e 56 114
e 56 115
e 56 116
e 56 117
e 56 118
e 56 119
e 56 120
e 56 121
e 56 122
e 56 123
e 56 124
e 56 125
e 56 126
e 56 127
e 128 129
e 128 130
e 128 131
e 128 132
e 128 133
e 128 134
e 128 135
e 128 136
e 128 137
e 128 138
e 128 139
e 128 140
e 128 141
e 128 142
e 128 143
e 128 144
e 128 145
e 128 146
e 128 147
e 128 148
e 128 149
e 128 150
e 128 151
e 128 152
e 128 153
e 128 154
e 128 155
e 128 156
e 128 157
e 128 158
e 128 159
e 128 160
e 128 161
e 128 162
e 128 163
e 128 164
e 128 165
e 128 166
e 128 167
e 128 168
e 128 169
e 128 170
e 128 171
e 128 172
e 128 173
e 128 174
e 128 175
e 128 176
e 128 177
e 128 178
e 128 179
e 128 180
e 128 181
e 128 182
e 128 183
e 128 184
e 185 186
e 185 187
e 185 188
e 185 189
e 185 190
e 185 191
e 185 192
e 185 193
e 185 194
e 185 195
e 185 196
e 185 197
e 185 198
e 185 199
e 185 200
e 185 201
e 185 202
e 185 203
e 185 204
e 185 205
e 185 206
e 185 207
e 185 208
e 185 209
e 185 210
e 185 211
e 185 212
e 185 213
e 185 214
e 185 215
e 185 216
e 185 217
e 185 218
e 185 219
e 185 220
e 185 221
e 185 222
e 185 223
e 185 224
e 185 225
e 185 226
e 185 227
e 185 228
e 185 229
e 185 230
e 185 231
e 185 232
e 185 233
e 185 234
e 185 235
e 185 236
e 185 237
e 185 238
e 185 239
e 185 240
e 185 241
e 185 242
e 185 243
e 185 244
e 185 245
e 185 246
e 185 247
e 185 248
e 185 249
e 185 250
e 185 251
e 185 252
e 185 253
e 185 254
e 185 255
e 185 256
e 185 257
e 185 258
e 185 259
e 185 260
e 185 261
e 185 262
e 185 263
e 185 264
e 185 265
e 185 266
e 185 267
e 185 268
e 185 269
e 185 270
e 185 271
e 185 272
e 185 273
e 185 274
e 185 275
e 185 276
e 185 277
e 185 278
e 185 279
e 185 280
e 185 281
e 185 282
e 185 283
e 185 284
e 285 286
e 285 287
e 285 288
e 285 289
e 285 290
e 285 291
e 285 292
e 285 293
e 285 294
e 285 295
e 285 296
e 285 297
e 285 298
e 285 299
e 285 300
e 285 301
e 285 302
e 285 303
e 285 304
e 285 305
e 285 306
e 285 307
e 285 308
e 285 309
e 285 310
e 285 311
e 285 312
e 285 313
e 285 314
e 285 315
e 285 316
e 285 317
e 285 318
e 285 319
e 285 320
e 285 321
e 285 322
e 285 323
e 285 324
e 285 325
e 285 326
e 285 327
e 285 328
e 285 329
e 285 330
e 285 331
e 285 332
e 285 333
e 285 334
e 285 335
e 285 336
e 285 337
e 285 338
e 285 339
e 285 340
e 285 341
e 285 342
e 285 343
e 285 344
e 285 345
e 285 346
e 285 347
e 285 348
e 285 349
e 350 351
e 350 352
e 350 353
e 350 354
e 350 355
e 350 356
e 350 357
e 350 358
e 350 359
e 350 360
e 350 361
e 350 362
e 350 363
e 350 364
e 365 366
e 365 367
e 365 368
e 365 369
e 365 370
e 365 371
e 365 372
e 365 373
e 365 374
e 365 375
e 365 376
e 365 377
e 365 378
e 365 379
e 365 380
e 365 381
e 365 382
e 365 383
e 365 384
e 365 385
e 365 386
e 365 387
e 365 388
e 365 389
e 365 390
e 365 391
e 365 392
e 365 393
e 365 394
e 365 395
e 365 396
e 365 397
e 365 398
e 365 399
e 365 400
e 365 401
e 365 402
e 365 403
e 365 404
e 365 405
e 365 406
e 365 407
e 365 408
e 365 409
e 365 410
e 365 411
e 365 412
e 365 413
e 365 414
e 365 415
e 365 416
e 365 417
e 365 418
e 365 419
e 365 420
e 365 421
e 365 422
e 365 423
e 365 424
e 365 425
e 365 426
e 365 427
e 365 428
e 365 429
e 365 430
e 365 431
e 432 433
e 432 434
e 432 435
e 432 436
e 432 437
e 432 438
e 432 439
e 432 440
e 432 441
e 432 442
e 432 443
e 432 444
e 432 445
e 432 446
e 432 447
e 432 448
e 432 449
e 432 450
e 432 451
e 432 452
e 432 453
e 432 454
e 432 455
e 432 456
e 432 457
e 432 458
e 432 459
e 432 460
e 432 461
e 432 462
e 432 463
e 432 464
e 432 465
e 432 466
e 432 467
e 432 468
e 432 469
e 432 470
e 432 471
e 432 472
e 432 473
e 432 474
e 432 475
e 432 476
e 432 477
e 432 478
e 432 479
e 432 480
e 432 481
e 432 482
e 432 483
e 432 484
e 432 485
e 432 486
e 432 487
e 432 488
e 432 489
e 432 490
e 432 491
e 432 492
e 432 493
e 432 494
e 432 495
e 432 496
e 432 497
e 432 498
e 432 499
e 432 500
e 432 501
e 432 502
e 432 503
e 432 504
e 432 505
e 432 506
e 432 507
e 432 508
e 432 509
e 432 510
e 432 511
e 512 513
e 512 514
e 512 515
e 512 516
e 512 517
e 512 518
e 512 519
e 512 520
e 512 521
e 512 522
e 512 523
e 512 524
e 512 525
e 512 526
e 512 527
e 512 528
e 512 529
e 512 530
e 512 531
e 512 532
e 512 533
e 512 534
e 512 535
e 512 536
e 512 537
e 512 538
e 512 539
e 512 540
e 512 541
e 512 542
e 512 543
e 512 544
e 512 545
e 512 546
e 512 547
e 512 548
e 512 549
e 512 550
e 512 551
e 512 552
e 512 553
e 512 554
e 512 555
e 512 556
e 512 557
e 512 558
e 512 559
e 512 560
e 512 561
e 512 562
e 512 563
e 512 564
e 512 565
e 512 566
e 512 567
e 512 568
e 512 569
e 512 570
e 512 571
e 512 572
e 512 573
e 512 574
e 512 575
e 512 576
e 512 577
e 512 578
e 512 579
e 512 580
e 512 581
e 512 582
e 512 583
e 512 584
e 512 585
e 512 586
e 512 587
e 512 588
e 512 589
e 512 590
e 512 591
e 512 592
e 512 593
e 512 594
e 512 595
e 512 596
e 512 597
e 512 598
e 512 599
e 512 600
e 512 601
e 512 602
e 512 603
e 512 604
e 512 605
e 512 606
e 512 607
e 512 608
e 512 609
e 512 610
e 512 611
e 612 613
e 612 614
e 612 615
e 612 616
e 612 617
e 612 618
e 612 619
e 612 620
e 612 621
e 612 622
e 612 623
e 612 624
e 612 625
e 612 626
e 612 627
e 612 628
e 612 629
e 612 630
e 612 631
e 612 632
e 612 633
e 612 634
e 612 635
e 612 636
e 612 637
e 612 638
e 612 639
e 612 640
e 612 641
e 612 642
e 612 643
e 612 644
e 612 645
e 612 646
e 612 647
e 612 648
e 612 649
e 612 650
e 612 651
e 612 652
e 612 653
e 612 654
e 612 655
e 612 656
e 612 657
e 612 658
e 612 659
e 612 660
e 612 661
e 612 662
e 612 663
e 612 664
e 612 665
e 612 666
e 612 667
e 612 668
e 612 669
e 612 670
e 612 671
e 612 672
e 612 673
e 612 674
e 612 675
e 612 676
e 612 677
e 612 678
e 612 679
e 612 680
e 612 681
e 612 682
e 612 683
e 612 684
e 612 685
e 612 686
e 612 687
e 612 688
e 612 689
e 612 690
e 612 691
e 612 692
e 612 693
e 612 694
e 612 695
e 612 696
e 612 697
e 612 698
e 699 700
e 699 701
e 699 702
e 699 703
e 699 704
e 699 705
e 699 706
e 699 707
e 699 708
e 699 709
e 699 710
e 699 711
e 699 712
e 699 713
e 699 714
e 699 715
e 699 716
e 699 717
e 699 718
e 699 719
e 699 720
e 699 721
e 699 722
e 699 723
e 699 724
e 699 725
e 699 726
e 699 727
e 699 728
e 699 729
e 699 730
e 699 731
e 699 732
e 699 733
e 699 734
e 699 735
e 699 736
e 699 737
e 699 738
e 699 739
e 699 740
e 699 741
e 699 742
e 699 743
e 699 744
e 699 745
e 699 746
e 699 747
e 699 748
e 699 749
e 699 750
e 699 751
e 699 752
e 699 753
e 699 754
e 699 755
e 699 756
e 699 757
e 699 758
e 699 759
e 699 760
e 699 761
e 699 762
e 699 763
e 699 764
e 699 765
e 699 766
e 699 767
e 699 768
e 699 769
e 770 771
e 770 772
e 770 773
e 770 774
e 770 775
e 770 776
e 770 777
e 770 778
e 770 779
e 770 780
e 770 781
e 770 782
e 770 783
e 770 784
e 770 785
e 770 786
e 770 787
e 770 788
e 770 789
e 770 790
e 770 791
e 770 792
e 770 793
e 770 794
e 770 795
e 770 796
e 770 797
e 770 798
e 770 799
e 770 800
e 770 801
e 770 802
e 770 803
e 770 804
e 770 805
e 770 806
e 770 807
e 770 808
e 770 809
e 770 810
e 770 811
e 770 812
e 770 813
e 770 814
e 770 815
e 770 816
e 770 817
e 770 818
e 770 819
e 770 820
e 770 821
e 770 822
e 770 823
e 770 824
e 770 825
e 770 826
e 770 827
e 770 828
e 770 829
e 770 830
e 770 831
e 770 832
e 770 833
e 770 834
e 835 836
e 835 837
e 835 838
e 835 839
e 835 840
e 835 841
e 835 842
e 835 843
e 835 844
e 835 845
e 835 846
e 835 847
e 835 848
e 835 849
e 835 850
e 835 851
e 835 852
e 835 853
e 835 854
e 855 856
e 855 857
e 855 858
e 855 859
e 855 860
e 855 861
e 855 862
e 855 863
e 855 864
e 855 865
e 855 866
e 855 867
e 855 868
e 855 869
e 855 870
e 855 871
e 855 872
e 855 873
e 855 874
e 855 875
e 855 876
e 855 877
e 855 878
e 855 879
e 855 880
e 855 881
e 855 882
e 855 883
e 855 884
e 855 885
e 855 886
e 855 887
e 855 888
e 855 889
e 855 890
e 855 891
e 855 892
e 855 893
e 855 894
e 855 895
e 855 896
e 855 897
e 855 898
e 855 899
e 855 900
e 855 901
e 855 902
e 855 903
e 855 904
e 855 905
e 855 906
e 855 907
e 855 908
e 855 909
e 855 910
e 855 911
e 855 912
e 855 913
e 855 914
e 855 915
e 855 916
e 855 917
e 855 918
e 855 919
e 855 920
e 855 921
e 855 922
e 855 923
e 855 924
e 855 925
e 855 926
e 855 927
e 855 928
e 929 930
e 929 931
e 929 932
e 929 933
e 929 934
e 929 935
e 929 936
e 929 937
e 929 938
e 929 939
e 929 940
e 929 941
e 929 942
e 929 943
e 929 944
e 929 945
e 929 946
e 929 947
e 929 948
e 929 949
e 929 950
e 929 951
e 929 952
e 929 953
e 929 954
e 929 955
e 929 956
e 929 957
e 929 958
e 929 959
e 929 960
e 929 961
e 929 962
e 929 963
e 929 964
e 929 965
e 929 966
e 929 967
e 929 968
e 929 969
e 929 970
e 929 971
e 929 972
e 929 973
e 929 974
e 929 975
e 929 976
e 929 977
e 929 978
e 929 979
e 929 980
e 929 981
e 929 982
e 929 983
e 929 984
e 929 985
e 929 986
e 929 987
e 929 988
e 929 989
e 929 990
e 929 991
e 929 992
e 929 993
e 929 994
e 929 995
e 929 996
e 929 997
e 929 998
e 929 999
e 929 1000
e 929 1001
e 929 1002
e 929 1003
e 929 1004
e 929 1005
e 929 1006
e 929 1007
e 929 1008
e 929 1009
e 929 1010
e 929 1011
e 929 1012
e 929 1013
e 929 1014
e 929 1015
e 929 1016
e 929 1017
e 929 1018
e 929 1019
e 929 1020
e 929 1021
e 1022 1023
e 1022 1024
e 1022 1025
e 1022 1026
e 1022 1027
e 1022 1028
e 1022 1029
e 1022 1030
e 1022 1031
e 1022 1032
e 1022 1033
e 1022 1034
e 1022 1035
e 1022 1036
e 1022 1037
e 1022 1038
e 1022 1039
e 1022 1040
e 1022 1041
e 1022 1042
e 1022 1043
e 1022 1044
e 1022 1045
e 1022 1046
e 1022 1047
e 1048 1049
e 1048 1050
e 1048 1051
e 1048 1052
e 1048 1053
e 1048 1054
e 1048 1055
e 1048 1056
e 1048 1057
e 1048 1058
e 1048 1059
e 1048 1060
e 1048 1061
e 1048 1062
e 1048 1063
e 1048 1064
e 1048 1065
e 1048 1066
e 1048 1067
e 1048 1068
e 1048 1069
e 1048 1070
e 1048 1071
e 1048 1072
e 1048 1073
e 1048 1074
e 1048 1075
e 1048 1076
e 1048 1077
e 1048 1078
e 1048 1079
e 1048 1080
e 1048 1081
e 1048 1082
e 1048 1083
e 1048 1084
e 1048 1085
e 1048 1086
e 1048 1087
e 1048 1088
e 1048 1089
e 1048 1090
e 1048 1091
e 1048 1092
e 1048 1093
e 1048 1094
e 1048 1095
e 1048 1096
e 1048 1097
e 1048 1098
e 1048 1099
e 1100 1101
e 1100 1102
e 1100 1103
e 1100 1104
e 1100 1105
e 1100 1106
e 1100 1107
e 1100 1108
e 1100 1109
e 1100 1110
e 1100 1111
e 1100 1112
e 1100 1113
e 1100 1114
e 1100 1115
e 1100 1116
e 1100 1117
e 1100 1118
e 1100 1119
e 1100 1120
e 1100 1121
e 1100 1122
e 1100 1123
e 1100 1124
e 1100 1125
e 1100 1126
e 1100 1127
e 1100 1128
e 1100 1129
e 1100 1130
e 1100 1131
e 1100 1132
e 1100 1133
e 1100 1134
e 1100 1135
e 1100 1136
e 1100 1137
e 1100 1138
e 1100 1139
e 1100 1140
e 1100 1141
e 1100 1142
e 1100 1143
e 1100 1144
e 1100 1145
e 1100 1146
e 1100 1147
e 1100 1148
e 1100 1149
e 1100 1150
e 1100 1151
e 1100 1152
e 1100 1153
e 1100 1154
e 1100 1155
e 1100 1156
e 1100 1157
e 1100 1158
e 1100 1159
e 1100 1160
e 1100 1161
e 1100 1162
e 1100 1163
e 1100 1164
e 1100 1165
e 1100 1166
e 1100 1167
e 1100 1168
e 1100 1169
e 1100 1170
e 1100 1171
e 1172 1173
e 1172 1174
e 1172 1175
e 1172 1176
e 1172 1177
e 1172 1178
e 1172 1179
e 1172 1180
e 1172 1181
e 1172 1182
e 1172 1183
e 1172 1184
e 1172 1185
e 1172 1186
e 1172 1187
e 1172 1188
e 1172 1189
e 1172 1190
e 1172 1191
e 1172 1192
e 1172 1193
e 1172 1194
e 1172 1195
e 1172 1196
e 1172 1197
e 1172 1198
e 1172 1199
e 1172 1200
e 1172 1201
e 1172 1202
e 1172 1203
e 1172 1204
e 1172 1205
e 1172 1206
e 1172 1207
e 1172 1208
e 1172 1209
e 1172 1210
e 1172 1211
e 1172 1212
e 1172 1213
e 1172 1214
e 1172 1215
e 1172 1216
e 1172 1217
e 1172 1218
e 1172 1219
e 1172 1220
e 1172 1221
e 1172 1222
e 1172 1223
e 1172 1224
e 1172 1225
e 1172 1226
e 1172 1227
e 1172 1228
e 1172 1229
e 1172 1230
e 1172 1231
e 1172 1232
e 1172 1233
e 1172 1234
e 1172 1235
e 1172 1236
e 1172 1237
e 1172 1238
e 1172 1239
e 1172 1240
e 1172 1241
e 1172 1242
e 1172 1243
e 1172 1244
e 1172 1245
e 1172 1246
e 1172 1247
e 1172 1248
e 1172 1249
e 1172 1250
e 1172 1251
e 1172 1252
e 1172 1253
e 1172 1254
e 1172 1255
e 1172 1256
e 1172 1257
e 1172 1258
e 1172 1259
e 1172 1260
e 1261 1262
e 1261 1263
e 1261 1264
e 1261 1265
e 1261 1266
e 1261 1267
e 1261 1268
e 1261 1269
e 1261 1270
e 1261 1271
e 1261 1272
e 1261 1273
e 1261 1274
e 1261 1275
e 1261 1276
e 1261 1277
e 1261 1278
e 1261 1279
e 1261 1280
e 1261 1281
e 1261 1282
e 1261 1283
e 1261 1284
e 1261 1285
e 1261 1286
e 1261 1287
e 1261 1288
e 1261 1289
e 1261 1290
e 1261 1291
e 1261 1292
e 1261 1293
e 1261 1294
e 1261 1295
e 1261 1296
e 1261 1297
e 1261 1298
e 1261 1299
e 1261 1300
e 1261 1301
e 1261 1302
e 1261 1303
e 1261 1304
e 1261 1305
e 1261 1306
e 1261 1307
e 1261 1308
e 1261 1309
e 1261 1310
e 1311 1312
e 1311 1313
e 1311 1314
e 1311 1315
e 1311 1316
e 1311 1317
e 1311 1318
e 1311 1319
e 1311 1320
e 1311 1321
e 1311 1322
e 1311 1323
e 1311 1324
e 1311 1325
e 1311 1326
e 1311 1327
e 1311 1328
e 1311 1329
e 1311 1330
e 1311 1331
e 1311 1332
e 1311 1333
e 1311 1334
e 1311 1335
e 1311 1336
e 1311 1337
e 1311 1338
e 1311 1339
e 1311 1340
e 1311 1341
e 1311 1342
e 1311 1343
e 1311 1344
e 1311 1345
e 1311 1346
e 1311 1347
e 1311 1348
e 1311 1349
e 1311 1350
e 1311 1351
e 1311 1352
e 1311 1353
e 1311 1354
e 1311 1355
e 1311 1356
e 1311 1357
e 1311 1358
e 1311 1359
e 1311 1360
e 1311 1361
e 1311 1362
e 1311 1363
e 1311 1364
e 1311 1365
e 1311 1366
e 1311 1367
e 1311 1368
e 1369 1370
e 1369 1371
e 1369 1372
e 1369 1373
e 1369 1374
e 1369 1375
e 1369 1376
e 1369 1377
e 1369 1378
e 1369 1379
e 1369 1380
e 1369 1381
e 1369 1382
e 1369 1383
e 1369 1384
e 1369 1385
e 1369 1386
e 1369 1387
e 1369 1388
e 1369 1389
e 1369 1390
e 1369 1391
e 1369 1392
e 1369 1393
e 1369 1394
e 1369 1395
e 1369 1396
e 1369 1397
e 1369 1398
e 1369 1399
e 1369 1400
e 1369 1401
e 1369 1402
e 1369 1403
e 1369 1404
e 1369 1405
e 1369 1406
e 1369 1407
e 1369 1408
e 1369 1409
e 1369 1410
e 1369 1411
e 1369 1412
e 1369 1413
e 1369 1414
e 1369 1415
e 1369 1416
e 1369 1417
e 1369 1418
e 1369 1419
e 1369 1420
e 1369 1421
e 1369 1422
e 1369 1423
e 1369 1424
e 1369 1425
e 1369 1426
e 1369 1427
e 1369 1428
e 1369 1429
e 1369 1430
e 1369 1431
e 1369 1432
e 1369 1433
e 1369 1434
e 1369 1435
e 1369 1436
e 1369 1437
e 1369 1438
e 1369 1439
e 1369 1440
e 1369 1441
e 1369 1442
e 1443 1444
e 1443 1445
e 1443 1446
e 1443 1447
e 1443 1448
e 1443 1449
e 1443 1450
e 1443 1451
e 1443 1452
e 1443 1453
e 1443 1454
e 1443 1455
e 1443 1456
e 1443 1457
e 1443 1458
e 1443 1459
e 1443 1460
e 1443 1461
e 1443 1462
e 1443 1463
e 1443 1464
e 1443 1465
e 1443 1466
e 1443 1467
e 1443 1468
e 1469 1470
e 1469 1471
e 1469 1472
e 1469 1473
e 1469 1474
e 1469 1475
e 1469 1476
e 1469 1477
e 1469 1478
e 1469 1479
e 1469 1480
e 1469 1481
e 1469 1482
e 1469 1483
e 1469 1484
e 1469 1485
e 1469 1486
e 1469 1487
e 1469 1488
e 1489 1490
e 1489 1491
e 1489 1492
e 1489 1493
e 1489 1494
e 1489 1495
e 1489 1496
e 1489 1497
e 1489 1498
e 1489 1499
e 1489 1500
e 1489 1501
e 1489 1502
e 1489 1503
e 1489 1504
e 1489 1505
e 1489 1506
e 1489 1507
e 1489 1508
e 1489 1509
e 1489 1510
e 1489 1511
e 1489 1512
e 1489 1513
e 1489 1514
e 1489 1515
e 1489 1516
e 1489 1517
e 1489 1518
e 1489 1519
e 1489 1520
e 1489 1521
e 1489 1522
e 1489 1523
e 1489 1524
e 1489 1525
e 1489 1526
e 1489 1527
e 1489 1528
e 1489 1529
e 1489 1530
e 1489 1531
e 1532 1533
e 1532 1534
e 1532 1535
e 1532 1536
e 1532 1537
e 1532 1538
e 1532 1539
e 1532 1540
e 1532 1541
e 1532 1542
e 1532 1543
e 1532 1544
e 1532 1545
e 1532 1546
e 1532 1547
e 1532 1548
e 1532 1549
e 1532 1550
e 1532 1551
e 1532 1552
e 1532 1553
e 1532 1554
e 1532 1555
e 1532 1556
e 1532 1557
e 1532 1558
e 1532 1559
e 1532 1560
e 1532 1561
e 1532 1562
e 1532 1563
e 1532 1564
e 1532 1565
e 1532 1566
e 1532 1567
e 1532 1568
e 1532 1569
e 1532 1570
e 1532 1571
e 1532 1572
e 1532 1573
e 1532 1574
e 1532 1575
e 1532 1576
e 1532 1577
e 1532 1578
e 1532 1579
e 1532 1580
e 1532 1581
e 1532 1582
e 1532 1583
e 1532 1584
e 1532 1585
e 1532 1586
e 1532 1587
e 1532 1588
e 1532 1589
e 1532 1590
e 1532 1591
e 1532 1592
e 1532 1593
e 1532 1594
e 1532 1595
e 1532 1596
e 1532 1597
e 1532 1598
e 1532 1599
e 1532 1600
e 1532 1601
e 1532 1602
e 1532 1603
e 1604 1605
e 1604 1606
e 1604 1607
e 1604 1608
e 1604 1609
e 1604 1610
e 1604 1611
e 1604 1612
e 1604 1613
e 1604 1614
e 1604 1615
e 1604 1616
e 1604 1617
e 1604 1618
e 1604 1619
e 1604 1620
e 1604 1621
e 1604 1622
e 1604 1623
e 1604 1624
e 1625 1626
e 1625 1627
e 1625 1628
e 1625 1629
e 1625 1630
e 1625 1631
e 1625 1632
e 1625 1633
e 1625 1634
e 1625 1635
e 1625 1636
e 1625 1637
e 1625 1638
e 1625 1639
e 1625 1640
e 1625 1641
e 1625 1642
e 1625 1643
e 1625 1644
e 1625 1645
e 1625 1646
e 1625 1647
e 1625 1648
e 1625 1649
e 1625 1650
e 1625 1651
e 1625 1652
e 1625 1653
e 1625 1654
e 1625 1655
e 1625 1656
e 1625 1657
e 1625 1658
e 1659 1660
e 1659 1661
e 1659 1662
e 1659 1663
e 1659 1664
e 1659 1665
e 1659 1666
e 1659 1667
e 1659 1668
e 1659 1669
e 1659 1670
e 1659 1671
e 1659 1672
e 1659 1673
e 1659 1674
e 1659 1675
e 1659 1676
e 1659 1677
e 1659 1678
e 1659 1679
e 1659 1680
e 1659 1681
e 1659 1682
e 1659 1683
e 1659 1684
e 1659 1685
e 1659 1686
e 1659 1687
e 1659 1688
e 1659 1689
e 1659 1690
e 1659 1691
e 1659 1692
e 1659 1693
e 1659 1694
e 1659 1695
e 1659 1696
e 1659 1697
e 1659 1698
e 1659 1699
e 1659 1700
e 1659 1701
e 1659 1702
e 1659 1703
e 1659 1704
e 1659 1705
e 1659 1706
e 1659 1707
e 1659 1708
e 1659 1709
e 1659 1710
e 1659 1711
e 1659 1712
e 1659 1713
e 1659 1714
e 1659 1715
e 1659 1716
e 1659 1717
e 1659 1718
e 1659 1719
e 1659 1720
e 1659 1721
e 1659 1722
e 1659 1723
e 1659 1724
e 1725 1726
e 1725 1727
e 1725 1728
e 1725 1729
e 1725 1730
e 1725 1731
e 1725 1732
e 1725 1733
e 1725 1734
e 1725 1735
e 1725 1736
e 1725 1737
e 1725 1738
e 1725 1739
e 1725 1740
e 1725 1741
e 1725 1742
e 1725 1743
e 1725 1744
e 1725 1745
e 1725 1746
e 1725 1747
e 1725 1748
e 1725 1749
e 1725 1750
e 1725 1751
e 1725 1752
e 1725 1753
e 1725 1754
e 1725 1755
e 1725 1756
e 1725 1757
e 1725 1758
e 1725 1759
e 1725 1760
e 1725 1761
e 1725 1762
e 1725 1763
e 1725 1764
e 1725 1765
e 1725 1766
e 1725 1767
e 1725 1768
e 1725 1769
e 1770 1771
e 1770 1772
e 1770 1773
e 1770 1774
e 1770 1775
e 1770 1776
e 1770 1777
e 1770 1778
e 1770 1779
e 1770 1780
e 1770 1781
e 1770 1782
e 1770 1783
e 1770 1784
e 1770 1785
e 1770 1786
e 1770 1787
e 1770 1788
e 1770 1789
e 1770 1790
e 1770 1791
e 1770 1792
e 1770 1793
e 1770 1794
e 1770 1795
e 1770 1796
e 1770 1797
e 1770 1798
e 1770 1799
e 1770 1800
e 1770 1801
e 1770 1802
e 1770 1803
e 1770 1804
e 1770 1805
e 1770 1806
e 1770 1807
e 1770 1808
e 1770 1809
e 1770 1810
e 1770 1811
e 1770 1812
e 1770 1813
e 1770 1814
e 1770 1815
e 1770 1816
e 1770 1817
e 1770 1818
e 1770 1819
e 1770 1820
e 1770 1821
e 1770 1822
e 1770 1823
e 1770 1824
e 1770 1825
e 1770 1826
e 1770 1827
e 1770 1828
e 1770 1829
e 1770 1830
e 1770 1831
e 1770 1832
e 1770 1833
e 1770 1834
e 1770 1835
e 1770 1836
e 1770 1837
e 1838 1839
e 1838 1840
e 1838 1841
e 1838 1842
e 1838 1843
e 1838 1844
e 1838 1845
e 1838 1846
e 1838 1847
e 1838 1848
e 1838 1849
e 1838 1850
e 1838 1851
e 1838 1852
e 1838 1853
e 1838 1854
e 1838 1855
e 1838 1856
e 1838 1857
e 1838 1858
e 1838 1859
e 1838 1860
e 1838 1861
e 1838 1862
e 1838 1863
e 1838 1864
e 1838 1865
e 1838 1866
e 1838 1867
e 1838 1868
e 1838 1869
e 1838 1870
e 1838 1871
e 1838 1872
e 1838 1873
e 1838 1874
e 1838 1875
e 1838 1876
e 1838 1877
e 1838 1878
e 1838 1879
e 1838 1880
e 1838 1881
e 1838 1882
e 1838 1883
e 1838 1884
e 1838 1885
e 1838 1886
e 1838 1887
e 1838 1888
e 1838 1889
e 1838 1890
e 1838 1891
e 1838 1892
e 1838 1893
e 1838 1894
e 1838 1895
e 1838 1896
e 1838 1897
e 1838 1898
e 1838 1899
e 1838 1900
e 1838 1901
e 1838 1902
e 1838 1903
e 1838 1904
e 1838 1905
e 1838 1906
e 1838 1907
e 1838 1908
e 1838 1909
e 1838 1910
e 1838 1911
e 1838 1912
e 1838 1913
e 1838 1914
e 1838 1915
e 1838 1916
e 1838 1917
e 1838 1918
e 1838 1919
e 1838 1920
e 1838 1921
e 1922 1923
e 1922 1924
e 1922 1925
e 1922 1926
e 1922 1927
e 1922 1928
e 1922 1929
e 1922 1930
e 1922 1931
e 1922 1932
e 1922 1933
e 1922 1934
e 1922 1935
e 1922 1936
e 1922 1937
e 1922 1938
e 1922 1939
e 1922 1940
e 1922 1941
e 1922 1942
e 1922 1943
e 1922 1944
e 1922 1945
e 1922 1946
e 1922 1947
e 1922 1948
e 1922 1949
e 1922 1950
e 1922 1951
e 1922 1952
e 1922 1953
e 1922 1954
e 1922 1955
e 1922 1956
e 1922 1957
e 1922 1958
e 1922 1959
e 1922 1960
e 1922 1961
e 1922 1962
e 1922 1963
e 1922 1964
e 1922 1965
e 1922 1966
e 1922 1967
e 1922 1968
e 1922 1969
e 1922 1970
e 1922 1971
e 1922 1972
e 1922 1973
e 1922 1974
e 1922 1975
e 1922 1976
e 1922 1977
e 1922 1978
e 1922 1979
e 1922 1980
e 1922 1981
e 1922 1982
e 1922 1983
e 1922 1984
e 1922 1985
e 1922 1986
e 1922 1987
e 1922 1988
e 1922 1989
e 1922 1990
e 1922 1991
e 1922 1992
e 1922 1993
e 1922 1994
e 1922 1995
e 1922 1996
e 1922 1997
e 1922 1998
e 1922 1999
e 1922 2000
e 1922 2001
e 1922 2002
e 2003 2004
e 2003 2005
e 2003 2006
e 2003 2007
e 2003 2008
e 2003 2009
e 2003 2010
e 2003 2011
e 2003 2012
e 2003 2013
e 2003 2014
e 2003 2015
e 2003 2016
e 2003 2017
e 2003 2018
e 2003 2019
e 2003 2020
e 2003 2021
e 2003 2022
e 2003 2023
e 2003 2024
e 2003 2025
e 2003 2026
e 2003 2027
e 2003 2028
e 2003 2029
e 2003 2030
e 2003 2031
e 2003 2032
e 2003 2033
e 2003 2034
e 2003 2035
e 2003 2036
e 2003 2037
e 2003 2038
e 2003 2039
e 2003 2040
e 2003 2041
e 2003 2042
e 2003 2043
e 2003 2044
e 2003 2045
e 2003 2046
e 2003 2047
e 2003 2048
e 2003 2049
e 2003 2050
e 2003 2051
e 2003 2052
e 2003 2053
e 2003 2054
e 2003 2055
e 2003 2056
e 2003 2057
e 2003 2058
e 2003 2059
e 2003 2060
e 2003 2061
e 2003 2062
e 2003 2063
e 2003 2064
e 2003 2065
e 2003 2066
e 2003 2067
e 2003 2068
e 2003 2069
e 2003 2070
e 2003 2071
e 2003 2072
e 2003 2073
e 2003 2074
e 2003 2075
e 2003 2076
e 2003 2077
e 2003 2078
e 2003 2079
e 2003 2080
e 2003 2081
e 2003 2082
e 2003 2083
e 2003 2084
e 2003 2085
e 2003 2086
e 2003 2087
e 2003 2088
e 2003 2089
e 2003 2090
e 2003 2091
e 2003 2092
e 2093 2094
e 2093 2095
e 2093 2096
e 2093 2097
e 2093 2098
e 2093 2099
e 2093 2100
e 2093 2101
e 2093 2102
e 2093 2103
e 2093 2104
e 2093 2105
e 2093 2106
e 2093 2107
e 2093 2108
e 2093 2109
e 2093 2110
e 2093 2111
e 2093 2112
e 2093 2113
e 2093 2114
e 2093 2115
e 2093 2116
e 2093 2117
e 2093 2118
e 2093 2119
e 2093 2120
e 2093 2121
e 2093 2122
e 2093 2123
e 2093 2124
e 2093 2125
e 2093 2126
e 2093 2127
e 2093 2128
e 2093 2129
e 2093 2130
e 2093 2131
e 2093 2132
e 2093 2133
e 2093 2134
e 2093 2135
e 2093 2136
e 2093 2137
e 2093 2138
e 2093 2139
e 2093 2140
e 2093 2141
e 2093 2142
e 2093 2143
e 2093 2144
e 2093 2145
e 2093 2146
e 2093 2147
e 2093 2148
e 2093 2149
e 2093 2150
e 2093 2151
e 2093 2152
e 2093 2153
e 2093 2154
e 2093 2155
e 2093 2156
e 2093 2157
e 2093 2158
e 2093 2159
e 2093 2160
e 2093 2161
e 2093 2162
e 2093 2163
e 2093 2164
e 2093 2165
e 2093 2166
e 2167 2168
e 2167 2169
e 2167 2170
e 2167 2171
e 2167 2172
e 2167 2173
e 2167 2174
e 2167 2175
e 2167 2176
e 2167 2177
e 2167 2178
e 2167 2179
e 2167 2180
e 2167 2181
e 2167 2182
e 2167 2183
e 2167 2184
e 2167 2185
e 2167 2186
e 2167 2187
e 2167 2188
e 2167 2189
e 2167 2190
e 2191 2192
e 2191 2193
e 2191 2194
e 2191 2195
e 2191 2196
e 2191 2197
e 2191 2198
e 2191 2199
e 2191 2200
e 2191 2201
e 2191 2202
e 2191 2203
e 2191 2204
e 2191 2205
e 2191 2206
e 2191 2207
e 2191 2208
e 2191 2209
e 2210 2211
e 2210 2212
e 2210 2213
e 2210 2214
e 2210 2215
e 2210 2216
e 2210 2217
e 2210 2218
e 2210 2219
e 2210 2220
e 2210 2221
e 2210 2222
e 2210 2223
e 2210 2224
e 2210 2225
e 2210 2226
e 2210 2227
e 2210 2228
e 2210 2229
e 2210 2230
e 2210 2231
e 2210 2232
e 2210 2233
e 2210 2234
e 2210 2235
e 2210 2236
e 2210 2237
e 2210 2238
e 2210 2239
e 2210 2240
e 2210 2241
e 2210 2242
e 2210 2243
e 2210 2244
e 2210 2245
e 2210 2246
e 2210 2247
e 2210 2248
e 2210 2249
e 2210 2250
e 2210 2251
e 2210 2252
e 2210 2253
e 2210 2254
e 2210 2255
e 2210 2256
e 2210 2257
e 2210 2258
e 2259 2260
e 2259 2261
e 2259 2262
e 2259 2263
e 2259 2264
e 2259 2265
e 2259 2266
e 2259 2267
e 2259 2268
e 2259 2269
e 2259 2270
e 2259 2271
e 2259 2272
e 2259 2273
e 2259 2274
e 2259 2275
e 2259 2276
e 2259 2277
e 2259 2278
e 2259 2279
e 2259 2280
e 2259 2281
e 2259 2282
e 2259 2283
e 2259 2284
e 2259 2285
e 2259 2286
e 2259 2287
e 2259 2288
e 2259 2289
e 2259 2290
e 2259 2291
e 2259 2292
e 2259 2293
e 2259 2294
e 2259 2295
e 2259 2296
e 2259 2297
e 2259 2298
e 2259 2299
e 2259 2300
e 2259 2301
e 2259 2302
e 2259 2303
e 2259 2304
e 2259 2305
e 2259 2306
e 2259 2307
e 2259 2308
e 2259 2309
e 2259 2310
e 2259 2311
e 2312 2313
e 2312 2314
e 2312 2315
e 2312 2316
e 2312 2317
e 2312 2318
e 2312 2319
e 2312 2320
e 2312 2321
e 2312 2322
e 2312 2323
e 2312 2324
e 2312 2325
e 2312 2326
e 2312 2327
e 2312 2328
e 2312 2329
e 2312 2330
e 2312 2331
e 2312 2332
e 2312 2333
e 2312 2334
e 2312 2335
e 2312 2336
e 2312 2337
e 2312 2338
e 2312 2339
e 2312 2340
e 2312 2341
e 2312 2342
e 2312 2343
e 2312 2344
e 2312 2345
e 2312 2346
e 2312 2347
e 2312 2348
e 2312 2349
e 2312 2350
e 2312 2351
e 2312 2352
e 2312 2353
e 2312 2354
e 2312 2355
e 2312 2356
e 2312 2357
e 2312 2358
e 2312 2359
e 2312 2360
e 2312 2361
e 2312 2362
e 2312 2363
e 2364 2365
e 2364 2366
e 2364 2367
e 2364 2368
e 2364 2369
e 2364 2370
e 2364 2371
e 2364 2372
e 2364 2373
e 2364 2374
e 2364 2375
e 2364 2376
e 2364 2377
e 2364 2378
e 2364 2379
e 2364 2380
e 2364 2381
e 2364 2382
e 2364 2383
e 2364 2384
e 2364 2385
e 2364 2386
e 2364 2387
e 2364 2388
e 2364 2389
e 2364 2390
e 2364 2391
e 2364 2392
e 2364 2393
e 2364 2394
e 2364 2395
e 2364 2396
e 2364 2397
e 2364 2398
e 2364 2399
e 2364 2400
e 2364 2401
e 2364 2402
e 2364 2403
e 2364 2404
e 2364 2405
e 2364 2406
e 2364 2407
e 2364 2408
e 2364 2409
e 2364 2410
e 2364 2411
e 2364 2412
e 2364 2413
e 2364 2414
e 2364 2415
e 2364 2416
e 2364 2417
e 2364 2418
e 2364 2419
e 2364 2420
e 2364 2421
e 2364 2422
e 2364 2423
e 2364 2424
e 2364 2425
e 2364 2426
e 2364 2427
e 2364 2428
e 2364 2429
e 2364 2430
e 2364 2431
e 2364 2432
e 2364 2433
e 2434 2435
e 2434 2436
e 2434 2437
e 2434 2438
e 2434 2439
e 2434 2440
e 2434 2441
e 2434 2442
e 2434 2443
e 2434 2444
e 2434 2445
e 2434 2446
e 2434 2447
e 2434 2448
e 2434 2449
e 2434 2450
e 2434 2451
e 2434 2452
e 2434 2453
e 2434 2454
e 2434 2455
e 2434 2456
e 2434 2457
e 2434 2458
e 2434 2459
e 2434 2460
e 2434 2461
e 2434 2462
e 2434 2463
e 2434 2464
e 2434 2465
e 2434 2466
e 2434 2467
e 2434 2468
e 2434 2469
e 2434 2470
e 2434 2471
e 2434 2472
e 2434 2473
e 2434 2474
e 2475 2476
e 2475 2477
e 2475 2478
e 2475 2479
e 2475 2480
e 2475 2481
e 2475 2482
e 2475 2483
e 2475 2484
e 2475 2485
e 2475 2486
e 2475 2487
e 2475 2488
e 2475 2489
e 2475 2490
e 2475 2491
e 2475 2492
e 2475 2493
e 2475 2494
e 2475 2495
e 2475 2496
e 2475 2497
e 2475 2498
e 2475 2499
e 2475 2500
e 2475 2501
e 2475 2502
e 2475 2503
e 2475 2504
e 2475 2505
e 2475 2506
e 2475 2507
e 2475 2508
e 2475 2509
e 2475 2510
e 2475 2511
e 2475 2512
e 2475 2513
e 2514 2515
e 2514 2516
e 2514 2517
e 2514 2518
e 2514 2519
e 2514 2520
e 2514 2521
e 2514 2522
e 2514 2523
e 2514 2524
e 2514 2525
e 2514 2526
e 2514 2527
e 2514 2528
e 2514 2529
e 2514 2530
e 2514 2531
e 2514 2532
e 2514 2533
e 2514 2534
e 2514 2535
e 2514 2536
e 2514 2537
e 2514 2538
e 2514 2539
e 2514 2540
e 2514 2541
e 2514 2542
e 2514 2543
e 2514 2544
e 2514 2545
e 2514 2546
e 2514 2547
e 2514 2548
e 2514 2549
e 2514 2550
e 2514 2551
e 2514 2552
e 2514 2553
e 2514 2554
e 2514 2555
e 2514 2556
e 2514 2557
e 2514 2558
e 2514 2559
e 2514 2560
e 2514 2561
e 2514 2562
e 2514 2563
e 2514 2564
e 2514 2565
e 2514 2566
e 2514 2567
e 2514 2568
e 2514 2569
e 2514 2570
e 2571 2572
e 2571 2573
e 2571 2574
e 2571 2575
e 2571 2576
e 2571 2577
e 2571 2578
e 2571 2579
e 2571 2580
e 2571 2581
e 2571 2582
e 2571 2583
e 2571 2584
e 2571 2585
e 2571 2586
e 2571 2587
e 2571 2588
e 2571 2589
e 2571 2590
e 2571 2591
e 2571 2592
e 2571 2593
e 2571 2594
e 2571 2595
e 2571 2596
e 2571 2597
e 2571 2598
e 2571 2599
e 2571 2600
e 2571 2601
e 2571 2602
e 2571 2603
e 2571 2604
e 2571 2605
e 2571 2606
e 2571 2607
e 2571 2608
e 2571 2609
e 2571 2610
e 2571 2611
e 2571 2612
e 2571 2613
e 2571 2614
e 2571 2615
e 2571 2616
e 2571 2617
e 2571 2618
e 2571 2619
e 2571 2620
e 2571 2621
e 2571 2622
e 2571 2623
e 2571 2624
e 2571 2625
e 2571 2626
e 2571 2627
e 2571 2628
e 2571 2629
e 2571 2630
e 2571 2631
e 2571 2632
e 2571 2633
e 2571 2634
e 2571 2635
e 2571 2636
e 2571 2637
e 2571 2638
e 2571 2639
e 2571 2640
e 2571 2641
e 2571 2642
e 2571 2643
e 2571 2644
e 2571 2645
e 2571 2646
e 2571 2647
e 2571 2648
e 2571 2649
e 2571 2650
e 2571 2651
e 2571 2652
e 2571 2653
e 2571 2654
e 2571 2655
e 2571 2656
e 2571 2657
e 2571 2658
e 2659 2660
e 2659 2661
e 2659 2662
e 2659 2663
e 2659 2664
e 2659 2665
e 2659 2666
e 2659 2667
e 2659 2668
e 2659 2669
e 2659 2670
e 2659 2671
e 2659 2672
e 2659 2673
e 2659 2674
e 2659 2675
e 2659 2676
e 2659 2677
e 2659 2678
e 2659 2679
e 2659 2680
e 2659 2681
e 2659 2682
e 2659 2683
e 2659 2684
e 2659 2685
e 2659 2686
e 2687 2688
e 2687 2689
e 2687 2690
e 2687 2691
e 2687 2692
e 2687 2693
e 2687 2694
e 2687 2695
e 2687 2696
e 2687 2697
e 2687 2698
e 2687 2699
e 2687 2700
e 2687 2701
e 2687 2702
e 2687 2703
e 2687 2704
e 2687 2705
e 2687 2706
e 2687 2707
e 2687 2708
e 2687 2709
e 2687 2710
e 2687 2711
e 2687 2712
e 2687 2713
e 2687 2714
e 2687 2715
e 2687 2716
e 2687 2717
e 2687 2718
e 2687 2719
e 2687 2720
e 2687 2721
e 2687 2722
e 2687 2723
e 2687 2724
e 2687 2725
e 2687 2726
e 2687 2727
e 2687 2728
e 2687 2729
e 2687 2730
e 2687 2731
e 2687 2732
e 2687 2733
e 2687 2734
e 2687 2735
e 2687 2736
e 2687 2737
e 2687 2738
e 2687 2739
e 2687 2740
e 2687 2741
e 2687 2742
e 2687 2743
e 2687 2744
e 2687 2745
e 2687 2746
e 2687 2747
e 2687 2748
e 2687 2749
e 2687 2750
e 2687 2751
e 2687 2752
e 2687 2753
e 2687 2754
e 2687 2755
e 2687 2756
e 2687 2757
e 2687 2758
e 2687 2759
e 2687 2760
e 2687 2761
e 2687 2762
e 2687 2763
e 2687 2764
e 2687 2765
e 2687 2766
e 2687 2767
e 2687 2768
e 2687 2769
e 2687 2770
e 2687 2771
e 2687 2772
e 2687 2773
e 2687 2774
e 2687 2775
e 2687 2776
e 2687 2777
e 2687 2778
e 2687 2779
e 2687 2780
e 2687 2781
e 2687 2782
e 2783 2784
e 2783 2785
e 2783 2786
e 2783 2787
e 2783 2788
e 2783 2789
e 2783 2790
e 2783 2791
e 2783 2792
e 2783 2793
e 2783 2794
e 2783 2795
e 2783 2796
e 2783 2797
e 2783 2798
e 2783 2799
e 2783 2800
e 2783 2801
e 2783 2802
e 2783 2803
e 2783 2804
e 2783 2805
e 2783 2806
e 2783 2807
e 2783 2808
e 2783 2809
e 2783 2810
e 2783 2811
e 2783 2812
e 2783 2813
e 2783 2814
e 2783 2815
e 2783 2816
e 2783 2817
e 2783 2818
e 2783 2819
e 2783 2820
e 2783 2821
e 2783 2822
e 2783 2823
e 2783 2824
e 2783 2825
e 2783 2826
e 2783 2827
e 2783 2828
e 2783 2829
e 2783 2830
e 2783 2831
e 2783 2832
e 2783 2833
e 2783 2834
e 2783 2835
e 2783 2836
e 2783 2837
e 2783 2838
e 2783 2839
e 2783 2840
e 2783 2841
e 2783 2842
e 2783 2843
e 2783 2844
e 2783 2845
e 2783 2846
e 2783 2847
e 2783 2848
e 2783 2849
e 2783 2850
e 2783 2851
e 2783 2852
e 2783 2853
e 2783 2854
e 2783 2855
e 2783 2856
e 2783 2857
e 2783 2858
e 2783 2859
e 2783 2860
e 2783 2861
e 2783 2862
e 2783 2863
e 2783 2864
e 2783 2865
e 2783 2866
e 2783 2867
e 2783 2868
e 2783 2869
e 2870 2871
e 2870 2872
e 2870 2873
e 2870 2874
e 2870 2875
e 2870 2876
e 2870 2877
e 2870 2878
e 2870 2879
e 2870 2880
e 2870 2881
e 2870 2882
e 2870 2883
e 2870 2884
e 2870 2885
e 2870 2886
e 2870 2887
e 2870 2888
e 2870 2889
e 2870 2890
e 2870 2891
e 2870 2892
e 2870 2893
e 2870 2894
e 2870 2895
e 2870 2896
e 2870 2897
e 2870 2898
e 2870 2899
e 2870 2900
e 2870 2901
e 2870 2902
e 2870 2903
e 2870 2904
e 2870 2905
e 2870 2906
e 2870 2907
e 2870 2908
e 2870 2909
e 2870 2910
e 2870 2911
e 2870 2912
e 2870 2913
e 2870 2914
e 2870 2915
e 2870 2916
e 2870 2917
e 2870 2918
e 2870 2919
e 2870 2920
e 2870 2921
e 2870 2922
e 2870 2923
e 2870 2924
e 2870 2925
e 2870 2926
e 2870 2927
e 2870 2928
e 2870 2929
e 2870 2930
e 2870 2931
e 2870 2932
e 2870 2933
e 2870 2934
e 2870 2935
e 2870 2936
e 2870 2937
e 2870 2938
e 2939 2940
e 2939 2941
e 2939 2942
e 2939 2943
e 2939 2944
e 2939 2945
e 2939 2946
e 2939 2947
e 2939 2948
e 2939 2949
e 2939 2950
e 2939 2951
e 2939 2952
e 2939 2953
e 2939 2954
e 2939 2955
e 2939 2956
e 2939 2957
e 2939 2958
e 2939 2959
e 2939 2960
e 2939 2961
e 2939 2962
e 2939 2963
e 2939 2964
e 2939 2965
e 2939 2966
e 2939 2967
e 2939 2968
e 2939 2969
e 2939 2970
e 2939 2971
e 2939 2972
e 2939 2973
e 2939 2974
e 2939 2975
e 2939 2976
e 2939 2977
e 2939 2978
e 2939 2979
e 2939 2980
e 2939 2981
e 2939 2982
e 2939 2983
e 2939 2984
e 2939 2985
e 2939 2986
e 2939 2987
e 2939 2988
e 2939 2989
e 2939 2990
e 2939 2991
e 2939 2992
e 2939 2993
e 2939 2994
e 2939 2995
e 2939 2996
e 2939 2997
e 2939 2998
e 2939 2999
e 2939 3000
e 2939 3001
e 2939 3002
e 2939 3003
e 2939 3004
e 2939 3005
e 2939 3006
e 2939 3007
e 2939 3008
e 2939 3009
e 2939 3010
e 2939 3011
e 2939 3012
e 2939 3013
e 2939 3014
e 2939 3015
e 2939 3016
